NAME : mEgtspf.pid16530.gtsp.161061437.tour
COMMENT : Length = 161061437
COMMENT : Found by LKH [Keld Helsgaun] Wed Mar 19 23:37:57 2025
TYPE : TOUR
DIMENSION : 90
TOUR_SECTION
1
36
37
38
35
8
73
74
71
72
24
25
26
23
10
39
40
41
42
2
53
54
51
52
4
7
9
89
90
87
88
44
45
46
43
64
65
66
63
50
47
48
49
5
60
61
62
59
6
84
85
86
83
31
32
33
34
3
27
28
29
30
82
79
80
81
69
70
67
68
18
15
16
17
11
12
13
14
19
20
21
22
55
56
57
58
75
76
77
78
-1
EOF
